/*********************************************
 * OPL 12.6.0.0 Data
 * Author: Adrian Rodriguez Bazaga, Pau Rodriguez Esmerats
 * Creation Date: 09/12/2017 at 00:43:18
 *********************************************/

maxConsec=10;
maxPresence=18;
maxHours=11;
minHours=6;
hours=20;
demand= [15 24 26 19 23 21 22 23 26 22 17 13 15 11 11 5 2 0 2 0  ];
nNurses=26;
